NAME: instance_1995
TYPE: TSP
DIMENSION: 20
EDGE_WEIGHT_TYPE: EUC_2D
NODE_COORD_SECTION
0 36.05 22.19
1 99.10 6.72
2 11.81 85.54
3 6.59 94.11
4 30.43 23.04
5 31.91 51.05
6 38.57 25.15
7 79.75 95.12
8 2.18 44.46
9 51.92 93.57
10 83.49 1.19
11 65.47 16.94
12 9.57 63.07
13 47.65 49.81
14 95.92 56.90
15 68.35 98.56
16 51.98 89.46
17 9.87 49.27
18 63.75 48.37
19 98.80 41.61
EOF
